# Solution for model count
# Objective value = 10
z#1 0
z#2 1
z#3 1
z#4 1
z#5 0
z#6 0
z#7 1
z#8 0
z#9 1
z#10 0
z#11 1
z#12 0
z#13 0
z#14 0
z#15 0
z#16 1
z#17 0
z#18 1
z#19 1
z#20 0
z#21 0
z#22 0
z#23 1
z#24 0
x#24 0
x#23 1696
x#22 0
x#21 0
x#20 0
x#19 1529
x#18 565
x#17 0
x#16 811
x#15 0
x#14 0
x#13 0
x#12 0
x#11 979
x#10 0
x#9 1762
x#8 0
x#7 16
x#6 0
x#5 0
x#4 944
x#3 1292
x#2 406
x#1 0
